results/res_prop_muc/res_Cimatti_mathsat_cores/QF_UF/PEQ020_size4.smt.smt2.out

real	0m1.037s
user	0m0.881s
sys	0m0.045s
