results/res_prop_muc/res_Cimatti_mathsat_cores/QF_UF/PEQ020_size4.smt.smt2.res
unsat
( _c0
  _c10
  _c102
  _c112
  _c113
  _c114
  _c115
  _c119
  _c121
  _c124
  _c125
  _c126
  _c130
  _c131
  _c134
  _c135
  _c136
  _c137
  _c139
  _c14
  _c140
  _c141
  _c142
  _c144
  _c145
  _c146
  _c147
  _c149
  _c15
  _c154
  _c155
  _c156
  _c157
  _c158
  _c159
  _c160
  _c161
  _c162
  _c163
  _c164
  _c165
  _c170
  _c171
  _c173
  _c175
  _c177
  _c178
  _c179
  _c180
  _c182
  _c183
  _c184
  _c185
  _c187
  _c188
  _c189
  _c190
  _c2
  _c21
  _c23
  _c24
  _c25
  _c272
  _c273
  _c274
  _c275
  _c280
  _c282
  _c283
  _c284
  _c285
  _c287
  _c288
  _c289
  _c29
  _c290
  _c293
  _c294
  _c295
  _c3
  _c300
  _c301
  _c303
  _c304
  _c305
  _c306
  _c309
  _c31
  _c310
  _c311
  _c312
  _c314
  _c315
  _c320
  _c321
  _c322
  _c325
  _c326
  _c327
  _c328
  _c330
  _c331
  _c332
  _c333
  _c335
  _c34
  _c340
  _c341
  _c342
  _c343
  _c344
  _c346
  _c347
  _c350
  _c355
  _c356
  _c357
  _c358
  _c359
  _c360
  _c361
  _c362
  _c363
  _c364
  _c365
  _c366
  _c367
  _c368
  _c369
  _c37
  _c371
  _c372
  _c373
  _c376
  _c377
  _c378
  _c380
  _c381
  _c382
  _c384
  _c385
  _c387
  _c388
  _c389
  _c392
  _c393
  _c397
  _c398
  _c399
  _c4
  _c400
  _c401
  _c403
  _c404
  _c405
  _c408
  _c409
  _c41
  _c413
  _c418
  _c419
  _c42
  _c420
  _c421
  _c422
  _c423
  _c424
  _c425
  _c426
  _c427
  _c428
  _c429
  _c430
  _c431
  _c432
  _c433
  _c434
  _c435
  _c436
  _c437
  _c438
  _c439
  _c44
  _c441
  _c442
  _c45
  _c451
  _c452
  _c453
  _c454
  _c46
  _c462
  _c467
  _c47
  _c472
  _c473
  _c474
  _c475
  _c476
  _c477
  _c479
  _c480
  _c481
  _c482
  _c485
  _c50
  _c51
  _c53
  _c55
  _c56
  _c57
  _c58
  _c60
  _c61
  _c62
  _c63
  _c65
  _c66
  _c67
  _c68
  _c78
  _c83
  _c97
  _c98 )
